branch-and-cut/resultados/B/b01.sol
82.0
19
7 29
7 20
12 21
18 28
18 43
20 27
20 48
20 22
21 22
22 43
22 41
24 28
27 34
29 33
33 35
36 49
36 41
37 47
41 47
