branch-and-cut/resultados/B/b01.log
Set parameter Username
Academic license - for non-commercial use only - expires 2024-12-10
Set parameter LazyConstraints to value 1
Set parameter TimeLimit to value 600
Gurobi Optimizer version 10.0.0 build v10.0.0rc2 (linux64)

CPU model: Intel(R) Core(TM) i5-4590 CPU @ 3.30GHz, instruction set [SSE2|AVX|AVX2]
Thread count: 4 physical cores, 4 logical processors, using up to 4 threads

Optimize a model with 261 rows, 63 columns and 271 nonzeros
Model fingerprint: 0xa3c7a1d1
Variable types: 0 continuous, 63 integer (63 binary)
Coefficient statistics:
  Matrix range     [1e+00, 1e+00]
  Objective range  [1e+00, 1e+01]
  Bounds range     [1e+00, 1e+00]
  RHS range        [1e+00, 1e+00]
Presolve removed 257 rows and 5 columns
Presolve time: 0.00s
Presolved: 4 rows, 58 columns, 14 nonzeros
Variable types: 0 continuous, 58 integer (58 binary)

Root relaxation: objective 3.500000e+01, 5 iterations, 0.00 seconds (0.00 work units)

    Nodes    |    Current Node    |     Objective Bounds      |     Work
 Expl Unexpl |  Obj  Depth IntInf | Incumbent    BestBd   Gap | It/Node Time

     0     0   35.00000    0    -          -   35.00000      -     -    0s
     0     0   37.00000    0    -          -   37.00000      -     -    0s
     0     0   37.00000    0    -          -   37.00000      -     -    0s
     0     0   37.50000    0    6          -   37.50000      -     -    0s
     0     0   48.00000    0    -          -   48.00000      -     -    0s
     0     0   49.00000    0    -          -   49.00000      -     -    0s
H    0     0                     108.0000000   49.00000  54.6%     -    0s
     0     0   49.00000    0    6  108.00000   49.00000  54.6%     -    0s
     0     0   56.00000    0    -  108.00000   56.00000  48.1%     -    0s
     0     0   58.00000    0    -  108.00000   58.00000  46.3%     -    0s
     0     0   61.00000    0    -  108.00000   61.00000  43.5%     -    0s
     0     0   61.00000    0    -  108.00000   61.00000  43.5%     -    0s
H    0     0                     102.0000000   61.33333  39.9%     -    0s
     0     0   61.33333    0    5  102.00000   61.33333  39.9%     -    0s
H    0     2                      95.0000000   61.33333  35.4%     -    0s
     0     2   64.50000    0    5   95.00000   64.50000  32.1%     -    0s
H    3     2                      88.0000000   65.00000  26.1%   4.0    0s
H   34    23                      84.0000000   72.27273  14.0%  12.5    0s
H   77    39                      83.0000000   76.00000  8.43%  11.9    0s
H  221    64                      82.0000000   79.75000  2.74%  10.2    1s

Cutting planes:
  User: 142
  Lazy constraints: 98

Explored 300 nodes (2630 simplex iterations) in 1.26 seconds (0.04 work units)
Thread count was 4 (of 4 available processors)

Solution count 7: 82 83 84 ... 108

Optimal solution found (tolerance 1.00e-04)
Best objective 8.200000000000e+01, best bound 8.200000000000e+01, gap 0.0000%

User-callback calls 946, time in user-callback 1.20 sec
